SDVRP instances/custom_instances/p10_8_splitx10_0.vrp
NAME:p10_8_splitx10_
BEST_KNOWN: 0
COMMENT: 0
DIMENSION: 911
CAPACITY: 2000
EDGE_WEIGHT_FORMAT: FUNCTION
EDGE_WEIGHT_TYPE: EXACT_2D
NODE_COORD_SECTION
1 0.00000 0.00000
2 35 11
3 35 11
4 35 11
5 35 11
6 35 11
7 -18 20
8 -18 20
9 -18 20
10 -18 20
11 -18 20
12 -18 20
13 -35 -48
14 -35 -48
15 -35 -48
16 -40 15
17 -40 15
18 -40 15
19 -40 15
20 -40 15
21 -40 15
22 10 43
23 10 43
24 10 43
25 10 43
26 29 -44
27 29 -44
28 29 -44
29 8 6
30 8 6
31 8 6
32 8 6
33 8 6
34 -48 -29
35 -48 -29
36 -48 -29
37 -39 8
38 -39 8
39 -39 8
40 -21 -20
41 -21 -20
42 -21 -20
43 -21 -20
44 -8 47
45 -8 47
46 -8 47
47 -8 47
48 33 41
49 33 41
50 33 41
51 33 41
52 33 41
53 33 41
54 33 41
55 8 2
56 8 2
57 8 2
58 8 2
59 31 17
60 31 17
61 -47 39
62 -47 39
63 -47 39
64 -47 39
65 -47 39
66 -47 39
67 -47 39
68 -47 39
69 -15 47
70 -15 47
71 -15 47
72 -15 47
73 -9 36
74 -9 36
75 -9 36
76 -40 -11
77 -40 -11
78 -40 -11
79 -40 -11
80 -40 -11
81 5 -35
82 5 -35
83 0 47
84 0 47
85 12 -25
86 12 -25
87 12 -25
88 12 -25
89 12 -25
90 12 -25
91 3 1
92 3 1
93 3 1
94 -38 -21
95 -38 -21
96 -38 -21
97 -38 -21
98 30 21
99 30 21
100 30 21
101 -37 10
102 -37 10
103 -37 10
104 -37 10
105 7 2
106 7 2
107 7 2
108 7 2
109 7 2
110 7 2
111 7 2
112 7 2
113 -2 29
114 -2 29
115 -2 29
116 -2 29
117 19 -13
118 19 -13
119 19 -13
120 19 -13
121 -19 6
122 -19 6
123 -19 6
124 -19 6
125 -19 6
126 -19 6
127 -32 19
128 -32 19
129 -32 19
130 6 -21
131 6 -21
132 6 -21
133 6 -21
134 6 -21
135 6 -21
136 6 -21
137 24 22
138 24 22
139 24 22
140 24 22
141 24 22
142 -45 -39
143 -45 -39
144 -45 -39
145 -45 -39
146 -48 25
147 -48 25
148 -7 -36
149 -7 -36
150 -7 -36
151 -7 -36
152 -7 -36
153 45 -50
154 45 -50
155 45 -50
156 -14 -30
157 -14 -30
158 -14 -30
159 -14 -30
160 -14 -30
161 -14 -30
162 5 -29
163 5 -29
164 5 -29
165 5 -29
166 5 -29
167 -34 39
168 -34 39
169 39 -46
170 39 -46
171 39 -46
172 39 -46
173 -7 11
174 -7 11
175 -7 11
176 -7 11
177 -7 11
178 -7 11
179 18 -41
180 18 -41
181 18 -41
182 18 -41
183 18 -41
184 18 -41
185 -47 21
186 -47 21
187 -47 21
188 -47 21
189 -16 -11
190 -16 -11
191 -16 -11
192 -16 -11
193 -16 -11
194 -16 -11
195 17 -6
196 17 -6
197 17 -6
198 17 -6
199 17 -6
200 17 -6
201 17 -6
202 -33 21
203 -33 21
204 -33 21
205 -40 1
206 -40 1
207 -40 1
208 -40 1
209 -40 1
210 -40 1
211 -40 1
212 39 -36
213 39 -36
214 39 -36
215 39 -36
216 39 -36
217 39 -36
218 4 8
219 4 8
220 4 8
221 4 8
222 4 8
223 4 8
224 4 8
225 31 -7
226 31 -7
227 31 -7
228 31 -7
229 37 -14
230 37 -14
231 37 -14
232 -50 -11
233 -50 -11
234 -50 -11
235 26 -13
236 26 -13
237 -12 -19
238 -12 -19
239 -12 -19
240 -12 -19
241 -12 -19
242 -12 -19
243 -12 -19
244 -12 -19
245 16 -36
246 16 -36
247 16 -36
248 -39 30
249 -39 30
250 -39 30
251 -38 -47
252 -38 -47
253 -38 -47
254 -38 -47
255 -38 -47
256 -38 -47
257 -26 14
258 -26 14
259 -26 14
260 -26 14
261 -26 14
262 31 12
263 31 12
264 31 12
265 31 12
266 31 12
267 31 12
268 -4 -44
269 -4 -44
270 42 40
271 42 40
272 42 40
273 42 40
274 39 20
275 39 20
276 39 20
277 39 20
278 39 20
279 39 20
280 21 3
281 21 3
282 21 3
283 21 3
284 21 3
285 2 -15
286 2 -15
287 2 -15
288 2 -15
289 2 -15
290 -9 -15
291 -9 -15
292 -9 -15
293 -9 -15
294 -9 -15
295 -9 -15
296 -20 3
297 -20 3
298 -20 3
299 -20 3
300 -20 3
301 46 -18
302 46 -18
303 46 -18
304 46 -18
305 46 -18
306 14 -28
307 14 -28
308 14 -28
309 14 -28
310 14 -28
311 14 -28
312 -28 -43
313 -28 -43
314 -28 -43
315 -16 -50
316 -16 -50
317 -23 -17
318 -23 -17
319 -23 -17
320 -14 38
321 -14 38
322 -14 38
323 -14 38
324 -14 38
325 -14 38
326 -14 38
327 -6 -49
328 -6 -49
329 -6 -49
330 -6 -49
331 -6 -49
332 4 -43
333 4 -43
334 4 -43
335 -15 -3
336 -15 -3
337 -15 -3
338 -15 -3
339 -15 -3
340 -1 -46
341 -1 -46
342 -1 -46
343 -1 -46
344 15 -11
345 15 -11
346 15 -11
347 15 -11
348 15 -11
349 15 -11
350 15 -11
351 15 -11
352 19 22
353 -20 9
354 -20 9
355 -20 9
356 -20 9
357 -20 9
358 -20 9
359 -20 9
360 -10 -44
361 -10 -44
362 -10 -44
363 32 42
364 32 42
365 32 42
366 18 -46
367 18 -46
368 18 -46
369 18 -46
370 39 34
371 39 34
372 39 34
373 39 34
374 47 20
375 47 20
376 47 20
377 47 20
378 47 20
379 47 20
380 47 20
381 -4 -45
382 -4 -45
383 -4 -45
384 -33 -13
385 -33 -13
386 -33 -13
387 -33 -13
388 -33 -13
389 -33 -13
390 -33 -13
391 -46 36
392 -46 36
393 -46 36
394 -46 36
395 -46 36
396 -27 15
397 -27 15
398 -27 15
399 -27 15
400 -27 15
401 -27 15
402 -27 15
403 -27 15
404 -22 46
405 -22 46
406 -22 46
407 -22 46
408 -22 46
409 6 17
410 6 17
411 6 17
412 6 17
413 6 17
414 6 17
415 6 17
416 6 17
417 -44 -25
418 -44 -25
419 -44 -25
420 -44 -25
421 -44 -25
422 -44 -25
423 26 44
424 26 44
425 26 44
426 26 44
427 36 27
428 36 27
429 36 27
430 36 27
431 36 27
432 36 27
433 19 -1
434 19 -1
435 19 -1
436 19 -1
437 43 -28
438 43 -28
439 43 -28
440 43 -28
441 5 11
442 5 11
443 -27 24
444 -27 24
445 -27 24
446 -27 24
447 -27 24
448 -27 24
449 -17 1
450 -17 1
451 -17 1
452 -17 1
453 -17 1
454 -17 1
455 -17 1
456 -39 22
457 -39 22
458 -39 22
459 -39 22
460 46 -40
461 46 -40
462 46 -40
463 46 -40
464 46 -40
465 -21 -40
466 -21 -40
467 -21 -40
468 -21 -40
469 -19 28
470 -19 28
471 -19 28
472 -19 28
473 -19 28
474 -19 28
475 7 -37
476 7 -37
477 7 -37
478 18 1
479 18 1
480 18 1
481 18 1
482 18 1
483 18 1
484 23 27
485 23 27
486 23 27
487 23 27
488 23 27
489 23 27
490 -20 25
491 -20 25
492 -20 25
493 -20 25
494 -20 25
495 41 4
496 41 4
497 41 4
498 41 4
499 41 4
500 17 -4
501 17 -4
502 18 -20
503 18 -20
504 18 -20
505 18 -20
506 18 -20
507 18 -20
508 18 -20
509 39 -18
510 39 -18
511 39 -18
512 39 -18
513 32 49
514 32 49
515 40 -26
516 40 -26
517 40 -26
518 40 -26
519 49 -22
520 49 -22
521 31 -35
522 31 -35
523 31 -35
524 31 -35
525 27 46
526 27 46
527 27 46
528 27 46
529 27 46
530 -28 -40
531 -28 -40
532 -28 -40
533 -28 -40
534 -28 -40
535 -28 -40
536 9 4
537 9 4
538 9 4
539 9 4
540 9 4
541 -32 -43
542 -32 -43
543 -32 -43
544 -32 -43
545 -32 -43
546 -32 -43
547 25 -38
548 25 -38
549 25 -38
550 25 -38
551 29 44
552 -26 -13
553 -26 -13
554 -26 -13
555 -26 -13
556 44 -36
557 44 -36
558 -43 -33
559 -43 -33
560 -43 -33
561 -43 -33
562 -43 -33
563 -41 -24
564 -41 -24
565 -41 -24
566 -41 -24
567 17 -11
568 17 -11
569 17 -11
570 17 -11
571 17 -11
572 17 -11
573 36 -2
574 36 -2
575 36 -2
576 36 -2
577 36 -2
578 36 -2
579 -22 -16
580 -22 -16
581 -22 -16
582 -22 -16
583 25 13
584 25 13
585 25 13
586 25 13
587 25 13
588 25 13
589 -10 17
590 -10 17
591 -10 17
592 -10 17
593 -10 17
594 -10 17
595 -19 19
596 -19 19
597 -19 19
598 -19 19
599 -19 19
600 -19 19
601 20 -11
602 20 -11
603 43 49
604 43 49
605 43 49
606 43 49
607 43 49
608 43 49
609 46 -34
610 46 -34
611 46 -34
612 46 -34
613 -17 -25
614 -17 -25
615 -17 -25
616 -15 -9
617 -15 -9
618 -15 -9
619 32 22
620 32 22
621 32 22
622 32 22
623 32 22
624 32 22
625 32 22
626 40 35
627 40 35
628 40 35
629 40 35
630 40 35
631 -35 -10
632 -35 -10
633 -35 -10
634 -35 -10
635 -35 -10
636 -35 -10
637 -18 -7
638 -18 -7
639 -18 -7
640 -18 -7
641 -18 -7
642 38 -47
643 38 -47
644 38 -47
645 38 -47
646 38 -47
647 -4 -31
648 -4 -31
649 -4 -31
650 -4 -31
651 -4 -31
652 -4 -31
653 -4 -31
654 -22 -32
655 -22 -32
656 -22 -32
657 -22 -32
658 -19 -17
659 -19 -17
660 -19 -17
661 -19 -17
662 -19 -17
663 -19 -17
664 -48 -11
665 -48 -11
666 -22 -8
667 -22 -8
668 44 26
669 44 26
670 44 26
671 44 26
672 44 26
673 44 26
674 44 26
675 37 18
676 37 18
677 37 18
678 37 18
679 37 18
680 49 -8
681 49 -8
682 49 -8
683 49 -8
684 49 -8
685 49 -8
686 49 -40
687 49 -40
688 49 -40
689 49 -40
690 50 -1
691 50 -1
692 50 -1
693 -3 6
694 -3 6
695 -37 -21
696 -37 -21
697 -37 -21
698 -37 -21
699 -24 33
700 -24 33
701 -24 33
702 -24 33
703 -12 -13
704 -12 -13
705 -12 -13
706 -12 -13
707 -12 -13
708 -12 -13
709 -12 -13
710 -16 -35
711 -16 -35
712 -16 -35
713 -16 -35
714 -16 -35
715 -16 -35
716 -16 -35
717 -25 -49
718 -25 -49
719 -43 -12
720 -43 -12
721 -43 -12
722 -43 -12
723 35 -22
724 35 -22
725 35 -22
726 35 -22
727 35 -22
728 35 -22
729 -42 -35
730 -42 -35
731 -42 -35
732 -42 -35
733 -42 -35
734 48 0
735 48 0
736 48 0
737 48 0
738 -48 -21
739 -48 -21
740 -48 -21
741 -48 -21
742 -48 -21
743 -48 -21
744 -13 -10
745 -13 -10
746 -13 -10
747 -13 -10
748 -13 -10
749 -29 -24
750 -29 -24
751 -29 -24
752 -29 -24
753 -29 -24
754 -29 -24
755 -14 -26
756 -14 -26
757 -14 -26
758 -14 -26
759 -14 -26
760 21 13
761 21 13
762 21 13
763 21 13
764 32 -25
765 32 -25
766 32 -25
767 32 -25
768 32 -25
769 32 -25
770 10 -35
771 10 -35
772 10 -35
773 10 -35
774 10 14
775 10 14
776 10 14
777 10 14
778 10 14
779 10 14
780 -35 18
781 -35 18
782 -34 -42
783 -34 -42
784 -34 -42
785 -34 -42
786 -34 -42
787 -34 -42
788 -46 -26
789 -46 -26
790 -46 -26
791 -46 -26
792 -46 -26
793 -42 19
794 -42 19
795 -42 19
796 -42 19
797 -42 19
798 9 7
799 9 7
800 9 7
801 9 7
802 10 47
803 10 47
804 46 14
805 46 14
806 46 14
807 46 14
808 46 14
809 46 14
810 -31 -16
811 -31 -16
812 -31 -16
813 32 18
814 32 18
815 32 18
816 32 18
817 32 18
818 11 -16
819 11 -16
820 11 -16
821 11 -16
822 11 -16
823 11 -16
824 11 -16
825 -19 -10
826 -19 -10
827 -19 -10
828 -19 -10
829 -19 -10
830 -2 -27
831 -2 -27
832 -2 -27
833 -2 -27
834 44 -43
835 44 -43
836 44 -43
837 15 -50
838 15 -50
839 15 -50
840 -4 -45
841 -4 -45
842 -4 -45
843 -4 -45
844 -4 -45
845 -4 -45
846 2 -14
847 2 -14
848 2 -14
849 31 30
850 31 30
851 31 30
852 31 30
853 33 -5
854 33 -5
855 33 -5
856 33 -5
857 33 -5
858 40 15
859 40 15
860 40 15
861 31 39
862 31 39
863 31 39
864 31 39
865 31 39
866 31 39
867 31 39
868 12 46
869 12 46
870 12 46
871 12 46
872 12 46
873 17 35
874 17 35
875 17 35
876 17 35
877 17 35
878 5 40
879 5 40
880 5 40
881 -14 -43
882 -14 -43
883 -14 -43
884 -14 -43
885 -14 -43
886 -14 -43
887 32 -50
888 32 -50
889 32 -50
890 32 -50
891 -35 -46
892 -35 -46
893 -35 -46
894 -35 -46
895 5 -1
896 5 -1
897 5 -1
898 5 -1
899 9 50
900 9 50
901 -8 25
902 -8 25
903 -8 25
904 -8 25
905 7 -1
906 7 -1
907 7 -1
908 7 -1
909 26 20
910 26 20
911 26 20
DEMAND_SECTION
1 0
2 400
3 20
4 20
5 20
6 20
7 400
8 400
9 20
10 20
11 20
12 10
13 400
14 400
15 20
16 200
17 20
18 20
19 20
20 20
21 10
22 400
23 200
24 20
25 10
26 400
27 200
28 20
29 400
30 200
31 100
32 20
33 20
34 400
35 100
36 20
37 200
38 100
39 10
40 400
41 400
42 20
43 20
44 400
45 100
46 20
47 10
48 400
49 200
50 100
51 20
52 20
53 20
54 20
55 200
56 20
57 20
58 20
59 400
60 20
61 400
62 200
63 100
64 20
65 20
66 20
67 20
68 10
69 400
70 20
71 20
72 20
73 400
74 400
75 10
76 200
77 20
78 20
79 20
80 20
81 400
82 100
83 400
84 400
85 400
86 400
87 100
88 20
89 20
90 10
91 400
92 100
93 10
94 400
95 200
96 100
97 20
98 400
99 100
100 10
101 400
102 20
103 20
104 20
105 400
106 200
107 100
108 20
109 20
110 20
111 20
112 10
113 400
114 400
115 20
116 10
117 400
118 100
119 20
120 10
121 400
122 400
123 20
124 20
125 20
126 20
127 400
128 200
129 20
130 400
131 100
132 20
133 20
134 20
135 20
136 10
137 200
138 100
139 20
140 20
141 10
142 400
143 20
144 20
145 10
146 200
147 100
148 400
149 200
150 100
151 20
152 10
153 400
154 200
155 20
156 400
157 100
158 20
159 20
160 20
161 10
162 400
163 400
164 20
165 20
166 20
167 400
168 20
169 400
170 100
171 20
172 10
173 400
174 400
175 100
176 20
177 20
178 10
179 200
180 100
181 20
182 20
183 20
184 10
185 400
186 400
187 100
188 20
189 200
190 100
191 20
192 20
193 20
194 10
195 400
196 200
197 100
198 20
199 20
200 20
201 20
202 200
203 100
204 10
205 400
206 400
207 20
208 20
209 20
210 20
211 10
212 400
213 400
214 20
215 20
216 20
217 10
218 400
219 400
220 20
221 20
222 20
223 20
224 10
225 400
226 20
227 20
228 20
229 400
230 20
231 10
232 400
233 400
234 100
235 200
236 100
237 400
238 200
239 100
240 20
241 20
242 20
243 20
244 10
245 400
246 400
247 10
248 400
249 200
250 100
251 400
252 400
253 100
254 20
255 20
256 10
257 200
258 20
259 20
260 20
261 10
262 400
263 100
264 20
265 20
266 20
267 10
268 400
269 400
270 400
271 400
272 20
273 20
274 400
275 400
276 20
277 20
278 20
279 10
280 400
281 200
282 100
283 20
284 20
285 400
286 200
287 20
288 20
289 20
290 400
291 200
292 100
293 20
294 20
295 20
296 400
297 400
298 20
299 20
300 10
301 400
302 200
303 100
304 20
305 20
306 400
307 400
308 20
309 20
310 20
311 10
312 400
313 400
314 200
315 400
316 10
317 400
318 200
319 10
320 400
321 400
322 100
323 20
324 20
325 20
326 20
327 400
328 200
329 20
330 20
331 10
332 200
333 100
334 10
335 200
336 100
337 20
338 20
339 10
340 400
341 200
342 100
343 20
344 400
345 400
346 100
347 20
348 20
349 20
350 20
351 10
352 400
353 400
354 100
355 20
356 20
357 20
358 20
359 10
360 400
361 200
362 100
363 400
364 20
365 10
366 400
367 400
368 100
369 20
370 400
371 400
372 20
373 20
374 400
375 200
376 100
377 20
378 20
379 20
380 20
381 400
382 20
383 20
384 400
385 100
386 20
387 20
388 20
389 20
390 10
391 400
392 100
393 20
394 20
395 20
396 400
397 200
398 100
399 20
400 20
401 20
402 20
403 10
404 400
405 400
406 100
407 20
408 20
409 400
410 200
411 100
412 20
413 20
414 20
415 20
416 10
417 400
418 400
419 100
420 20
421 20
422 10
423 400
424 20
425 20
426 10
427 400
428 200
429 20
430 20
431 20
432 20
433 400
434 200
435 100
436 10
437 400
438 100
439 20
440 20
441 400
442 400
443 400
444 20
445 20
446 20
447 20
448 10
449 400
450 200
451 20
452 20
453 20
454 20
455 10
456 400
457 20
458 20
459 20
460 200
461 20
462 20
463 20
464 10
465 400
466 400
467 20
468 10
469 400
470 100
471 20
472 20
473 20
474 10
475 400
476 400
477 20
478 400
479 200
480 20
481 20
482 20
483 20
484 200
485 100
486 20
487 20
488 20
489 10
490 400
491 200
492 100
493 20
494 20
495 200
496 20
497 20
498 20
499 20
500 400
501 100
502 400
503 400
504 100
505 20
506 20
507 20
508 10
509 400
510 400
511 20
512 10
513 200
514 100
515 400
516 400
517 20
518 10
519 400
520 400
521 400
522 100
523 20
524 10
525 400
526 400
527 20
528 20
529 10
530 400
531 400
532 100
533 20
534 20
535 10
536 400
537 100
538 20
539 20
540 10
541 400
542 200
543 100
544 20
545 20
546 20
547 400
548 400
549 100
550 20
551 400
552 400
553 400
554 20
555 20
556 400
557 200
558 200
559 20
560 20
561 20
562 20
563 400
564 400
565 100
566 20
567 400
568 200
569 100
570 20
571 20
572 20
573 400
574 20
575 20
576 20
577 20
578 10
579 200
580 100
581 20
582 10
583 200
584 20
585 20
586 20
587 20
588 10
589 400
590 200
591 100
592 20
593 20
594 10
595 400
596 400
597 20
598 20
599 20
600 10
601 400
602 20
603 400
604 400
605 20
606 20
607 20
608 20
609 400
610 100
611 20
612 20
613 400
614 400
615 100
616 400
617 400
618 200
619 400
620 100
621 20
622 20
623 20
624 20
625 10
626 400
627 400
628 100
629 20
630 10
631 400
632 100
633 20
634 20
635 20
636 10
637 400
638 400
639 20
640 20
641 10
642 200
643 100
644 20
645 20
646 10
647 400
648 200
649 20
650 20
651 20
652 20
653 10
654 400
655 100
656 20
657 10
658 400
659 400
660 20
661 20
662 20
663 20
664 200
665 100
666 400
667 200
668 400
669 200
670 100
671 20
672 20
673 20
674 10
675 400
676 400
677 20
678 20
679 20
680 200
681 100
682 20
683 20
684 20
685 10
686 400
687 100
688 20
689 10
690 400
691 100
692 20
693 400
694 400
695 400
696 100
697 20
698 10
699 400
700 400
701 20
702 10
703 400
704 400
705 100
706 20
707 20
708 20
709 20
710 400
711 200
712 20
713 20
714 20
715 20
716 10
717 400
718 10
719 200
720 100
721 20
722 10
723 200
724 20
725 20
726 20
727 20
728 10
729 400
730 100
731 20
732 20
733 20
734 400
735 200
736 100
737 10
738 200
739 20
740 20
741 20
742 20
743 10
744 400
745 20
746 20
747 20
748 20
749 400
750 400
751 20
752 20
753 20
754 10
755 400
756 100
757 20
758 20
759 20
760 400
761 100
762 20
763 10
764 400
765 400
766 100
767 20
768 20
769 20
770 400
771 400
772 100
773 10
774 400
775 200
776 100
777 20
778 20
779 10
780 400
781 20
782 200
783 100
784 20
785 20
786 20
787 20
788 400
789 100
790 20
791 20
792 20
793 400
794 100
795 20
796 20
797 10
798 400
799 200
800 100
801 10
802 200
803 100
804 400
805 400
806 20
807 20
808 20
809 20
810 400
811 400
812 200
813 400
814 200
815 100
816 20
817 10
818 400
819 100
820 20
821 20
822 20
823 20
824 10
825 400
826 100
827 20
828 20
829 10
830 200
831 100
832 20
833 10
834 400
835 200
836 10
837 400
838 400
839 20
840 400
841 400
842 100
843 20
844 20
845 20
846 400
847 20
848 20
849 400
850 200
851 100
852 20
853 400
854 400
855 20
856 20
857 20
858 400
859 200
860 10
861 200
862 100
863 20
864 20
865 20
866 20
867 10
868 400
869 200
870 100
871 20
872 10
873 400
874 100
875 20
876 20
877 10
878 400
879 400
880 100
881 400
882 100
883 20
884 20
885 20
886 20
887 400
888 200
889 100
890 10
891 400
892 200
893 100
894 10
895 400
896 20
897 20
898 20
899 400
900 400
901 400
902 400
903 20
904 20
905 400
906 100
907 20
908 10
909 400
910 200
911 100
DEPOT_SECTION
1
-1
EOF