SDVRP instances/custom_instances/p10_8_splitx10_0.sol
910 -1 5 2 3 4 808 805 807 804 803 806 859 858 857 -7 6 11 10 490 492 491 489 596 595 597 599 -9 8 446 444 447 445 443 442 201 202 203 780 779 128 127 126 -13 14 12 251 254 250 253 255 252 782 783 784 785 -19 16 17 15 18 20 795 146 145 392 394 390 391 393 60 67 66 63 62 61 65 64 -23 24 21 22 871 867 874 873 876 875 872 351 -28 29 31 30 32 798 800 799 797 535 537 536 539 538 -41 40 39 42 662 658 657 660 661 659 193 189 191 192 -57 55 674 678 675 677 676 277 275 274 276 273 278 815 813 -72 73 82 83 877 -74 45 43 44 46 68 71 69 70 406 404 405 403 407 -87 89 88 84 86 85 307 305 306 309 308 310 -92 90 91 441 440 219 221 218 220 222 223 -94 93 563 562 565 694 695 696 697 -96 95 564 418 419 416 420 417 421 787 741 740 739 737 738 742 -98 99 97 621 619 622 620 618 848 850 851 849 137 140 138 139 -104 107 108 106 110 105 111 109 54 56 904 907 896 894 897 895 -113 114 115 112 902 900 592 593 590 591 589 588 -123 120 121 122 125 297 299 295 296 298 452 450 451 453 454 449 -124 100 103 102 101 36 37 38 204 209 210 207 206 208 205 -135 133 132 134 476 474 475 81 80 164 162 165 163 -136 625 626 627 628 629 370 371 372 369 -156 157 158 155 654 656 655 653 751 753 752 750 749 748 745 744 747 -161 147 151 148 647 649 650 646 652 651 648 830 829 -169 642 645 644 888 886 889 887 25 27 26 546 549 -176 174 175 177 172 173 692 693 -190 188 579 578 580 581 317 316 318 552 554 551 553 -194 199 200 197 198 196 571 566 343 349 345 344 -195 226 224 225 227 856 852 853 855 573 576 574 572 577 575 -212 211 437 438 436 514 722 724 726 727 723 -216 213 215 214 833 834 835 154 152 153 170 171 168 643 641 -217 413 415 411 409 410 414 412 408 773 778 776 775 777 774 -229 230 228 508 510 511 509 235 234 601 600 -232 233 231 664 663 718 721 719 720 79 75 76 77 78 631 634 633 635 -243 238 241 240 236 613 614 612 754 755 758 -244 246 245 178 180 181 182 769 771 770 772 -249 247 248 166 167 700 699 698 701 493 -268 267 844 841 840 843 330 328 326 329 327 -282 283 279 280 281 261 266 265 264 263 262 759 760 761 762 -293 290 291 289 702 703 706 707 743 746 -294 292 242 239 237 543 544 541 542 540 545 893 892 890 891 786 781 -304 302 300 303 301 518 519 515 516 517 -314 315 717 716 464 465 714 711 715 710 712 713 159 160 757 756 -347 350 348 346 570 569 568 567 117 116 118 119 503 501 506 505 502 507 504 -355 353 352 354 358 256 259 399 395 396 398 400 402 397 401 594 598 -356 357 260 258 257 456 458 455 457 186 185 187 184 794 792 793 796 -363 362 364 51 47 48 49 53 50 52 862 860 861 863 864 866 865 488 487 483 486 485 484 -379 373 375 376 378 377 374 668 669 673 667 670 672 671 426 429 624 623 -389 388 791 790 789 788 33 35 34 142 141 144 143 729 732 730 731 728 560 557 559 558 561 -424 422 423 425 524 528 525 526 527 512 513 550 -431 427 430 428 271 272 270 269 603 605 602 606 604 607 -448 334 336 337 335 338 617 615 616 -466 467 311 312 313 531 533 530 534 532 529 -473 469 470 472 471 468 319 322 323 325 320 324 321 903 901 -481 497 495 496 494 498 736 734 735 733 689 690 691 683 679 684 682 681 680 854 -482 480 479 477 478 435 433 432 434 500 499 906 905 -547 548 522 523 521 520 765 764 763 766 767 768 -555 556 461 459 463 460 462 686 687 685 688 611 609 608 610 439 725 -583 586 587 584 582 585 58 59 814 816 812 910 908 909 -630 632 384 383 386 385 387 810 809 811 -636 640 638 639 637 665 666 826 828 825 827 824 -704 708 705 709 880 883 882 885 884 881 359 361 360 149 150 832 831 -817 823 821 822 130 131 129 284 285 845 -820 819 818 183 179 367 366 368 365 836 838 837 -839 842 382 380 381 341 340 342 339 332 333 331 287 286 288 847 846 -868 870 869 801 802 898 899 878 879 0 





OBJ=
5683.611
BEST_KNOWN=
0.000